experiments/sat_smt/run/sat-r+/results/alice.res
solved=true
solvingTime=1287.720947265625
nActions=19