experiments/sat_smt/run/sat-r+/results/alice.out
Timesteps: 1
s UNSATISFIABLE
real 0.24
user 0.04
sys 0.00
Timesteps: 2
s UNSATISFIABLE
real 0.29
user 0.08
sys 0.01
Timesteps: 3
s UNSATISFIABLE
real 0.41
user 0.27
sys 0.01
Timesteps: 4
s UNSATISFIABLE
real 1.22
user 0.96
sys 0.01
Timesteps: 5
s UNSATISFIABLE
real 1.95
user 1.71
sys 0.02
Timesteps: 6
s UNSATISFIABLE
real 6.11
user 5.80
sys 0.03
Timesteps: 7
s UNSATISFIABLE
real 22.10
user 21.20
sys 0.06
Timesteps: 8
s UNSATISFIABLE
real 21.44
user 20.42
sys 0.06
Timesteps: 9
s UNSATISFIABLE
real 27.38
user 26.24
sys 0.08
Timesteps: 10
s UNSATISFIABLE
real 33.92
user 32.62
sys 0.08
Timesteps: 11
s UNSATISFIABLE
real 29.82
user 28.52
sys 0.09
Timesteps: 12
s UNSATISFIABLE
real 45.55
user 44.05
sys 0.11
Timesteps: 13
s UNSATISFIABLE
real 55.10
user 54.22
sys 0.12
Timesteps: 14
s UNSATISFIABLE
real 87.44
user 86.39
sys 0.17
Timesteps: 15
s UNSATISFIABLE
real 113.62
user 112.40
sys 0.17
Timesteps: 16
s UNSATISFIABLE
real 124.26
user 122.64
sys 0.20
Timesteps: 17
s UNSATISFIABLE
real 207.62
user 205.92
sys 0.26
Timesteps: 18
s UNSATISFIABLE
real 365.71
user 363.30
sys 0.34
Timesteps: 19
s SATISFIABLE
real 151.95
user 150.43
sys 0.23
